%mem=256MB
#P HF 6-31G(d) pop=nboread

! File generated by the HuLiS 3.3.7 code - Wednesday, March 6, 2024 at 5:09:11 PM Central European Standard Time

0 1
C      0.08989     -0.02467      0.13551
C      1.49347      0.07195     -0.20662
C     -0.78585      1.14654      0.33022
C      2.30667     -0.91191     -0.73811
C      2.35373      1.27236     -0.07322
C     -0.73901     -1.16543      0.15603
C     -0.45289      2.52248      0.52005
C     -2.10758      0.72250      0.34421
C      3.64694     -0.40104     -0.92785
H      1.99875     -1.91046     -1.00264
C      2.04185      2.55554      0.27656
C      3.69184      0.89265     -0.50695
C     -0.42266     -2.55925      0.32214
C     -2.14049     -0.68138      0.15282
C      0.76650      3.13311      0.54381
H     -1.31278      3.16365      0.69763
H     -2.97602      1.36327      0.40884
H      4.46657     -0.96981     -1.34635
H      2.87729      3.25165      0.29967
H      4.53695      1.56618     -0.52912
C     -1.22265     -3.67653     -0.12500
C     -3.30987     -1.35422     -0.15358
H      0.77012      4.19885      0.75124
C     -2.55176     -3.69483     -0.61012
C     -3.48558     -2.68431     -0.58325
H     -4.20982     -0.74439     -0.13815
H     -2.90072     -4.66284     -0.96028
H     -4.48724     -2.94512     -0.91103
C      0.72426     -3.12596      0.96647
C     -0.49764     -4.88332      0.09355
C      0.67936     -4.59966      0.76126
H     -0.85209     -5.87039     -0.17082
C      1.62287     -2.43292      1.75577
C      2.75819     -2.90890      2.44490
C      2.77822     -5.37907      1.91482
C      1.62576     -5.55654      1.17556
C      3.27463     -4.19010      2.48980
H      1.41955     -1.37747      1.88268
H      3.30580     -2.15697      3.00372
H      4.18882     -4.30521      3.06600
H      3.36520     -6.27210      2.10515
H      1.40643     -6.57724      0.87063

$nbo nrt $end
$NRTSTR ! Trust factor = 9.05% (HLP) 
  STR        ! HuLiS Wgt = 3.67% (HLP)  S1
    LONE 14 1 END
    BOND D 1 6 D 2 4 D 3 8 D 5 11 D 7 15 D 9 12 D 13 29 D 21 24 D 22 25 D 30 31 D 34 37 D 35 36 S 1 2 S 1 3 S 2 5 S 3 7 S 4 9 S 4 10 S 5 12 S 6 13 S 6 14 S 7 16 S 8 14 S 8 17 S 9 18 S 11 15 S 11 19 S 12 20 S 13 21 S 14 22 S 15 23 S 21 30 S 22 26 S 24 25 S 24 27 S 25 28 S 29 31 S 29 33 S 30 32 S 31 36 S 33 34 S 33 38 S 34 39 S 35 37 S 35 41 S 36 42 S 37 40 END
  END
  STR        ! HuLiS Wgt = 11.03% (HLP)  S2
    LONE END
    BOND D 1 6 D 2 4 D 3 8 D 5 11 D 7 15 D 9 12 D 13 29 D 14 22 D 21 30 D 24 25 D 31 36 D 33 34 D 35 37 S 1 2 S 1 3 S 2 5 S 3 7 S 4 9 S 4 10 S 5 12 S 6 13 S 6 14 S 7 16 S 8 14 S 8 17 S 9 18 S 11 15 S 11 19 S 12 20 S 13 21 S 15 23 S 21 24 S 22 25 S 22 26 S 24 27 S 25 28 S 29 31 S 29 33 S 30 31 S 30 32 S 33 38 S 34 37 S 34 39 S 35 36 S 35 41 S 36 42 S 37 40 END
  END
  STR        ! HuLiS Wgt = 10.53% (HLP)  S3
    LONE END
    BOND D 1 2 D 3 7 D 4 9 D 5 12 D 6 13 D 8 14 D 11 15 D 21 24 D 22 25 D 29 33 D 30 31 D 34 37 D 35 36 S 1 3 S 1 6 S 2 4 S 2 5 S 3 8 S 4 10 S 5 11 S 6 14 S 7 15 S 7 16 S 8 17 S 9 12 S 9 18 S 11 19 S 12 20 S 13 21 S 13 29 S 14 22 S 15 23 S 21 30 S 22 26 S 24 25 S 24 27 S 25 28 S 29 31 S 30 32 S 31 36 S 33 34 S 33 38 S 34 39 S 35 37 S 35 41 S 36 42 S 37 40 END
  END
  STR        ! HuLiS Wgt = 3.60% (HLP)  S4
    LONE 8 1 END
    BOND D 1 3 D 2 4 D 5 11 D 6 14 D 7 15 D 9 12 D 13 29 D 21 24 D 22 25 D 30 31 D 33 34 D 35 36 S 1 2 S 1 6 S 2 5 S 3 7 S 3 8 S 4 9 S 4 10 S 5 12 S 6 13 S 7 16 S 8 14 S 8 17 S 9 18 S 11 15 S 11 19 S 12 20 S 13 21 S 14 22 S 15 23 S 21 30 S 22 26 S 24 25 S 24 27 S 25 28 S 29 31 S 29 33 S 30 32 S 31 36 S 33 38 S 34 37 S 34 39 S 35 37 S 35 41 S 36 42 S 37 40 END
  END
  STR        ! HuLiS Wgt = 0.30% (HLP)  S5
    LONE 37 1 END
    BOND D 1 6 D 2 4 D 3 8 D 5 11 D 7 15 D 9 12 D 13 29 D 14 22 D 24 25 D 30 31 D 33 34 D 35 36 S 1 2 S 1 3 S 2 5 S 3 7 S 4 9 S 4 10 S 5 12 S 6 13 S 6 14 S 7 16 S 8 14 S 8 17 S 9 18 S 11 15 S 11 19 S 12 20 S 13 21 S 15 23 S 21 24 S 21 30 S 22 25 S 22 26 S 24 27 S 25 28 S 29 31 S 29 33 S 30 32 S 31 36 S 33 38 S 34 37 S 34 39 S 35 37 S 35 41 S 36 42 S 37 40 END
  END
  STR        ! HuLiS Wgt = 2.74% (HLP)  S6
    LONE 21 1 END
    BOND D 1 6 D 2 4 D 3 8 D 5 11 D 7 15 D 9 12 D 13 29 D 14 22 D 24 25 D 30 31 D 33 34 D 35 36 S 1 2 S 1 3 S 2 5 S 3 7 S 4 9 S 4 10 S 5 12 S 6 13 S 6 14 S 7 16 S 8 14 S 8 17 S 9 18 S 11 15 S 11 19 S 12 20 S 13 21 S 15 23 S 21 24 S 21 30 S 22 25 S 22 26 S 24 27 S 25 28 S 29 31 S 29 33 S 30 32 S 31 36 S 33 38 S 34 37 S 34 39 S 35 37 S 35 41 S 36 42 S 37 40 END
  END
  STR        ! HuLiS Wgt = 2.46% (HLP)  S7
    LONE 31 1 END
    BOND D 1 6 D 2 4 D 3 8 D 5 11 D 7 15 D 9 12 D 13 29 D 14 22 D 21 30 D 24 25 D 33 34 D 35 36 S 1 2 S 1 3 S 2 5 S 3 7 S 4 9 S 4 10 S 5 12 S 6 13 S 6 14 S 7 16 S 8 14 S 8 17 S 9 18 S 11 15 S 11 19 S 12 20 S 13 21 S 15 23 S 21 24 S 22 25 S 22 26 S 24 27 S 25 28 S 29 31 S 29 33 S 30 31 S 30 32 S 31 36 S 33 38 S 34 37 S 34 39 S 35 37 S 35 41 S 36 42 S 37 40 END
  END
  STR        ! HuLiS Wgt = 2.79% (HLP)  S8
    LONE 3 1 END
    BOND D 1 6 D 2 4 D 5 11 D 7 15 D 8 14 D 9 12 D 13 29 D 21 24 D 22 25 D 30 31 D 33 34 D 35 36 S 1 2 S 1 3 S 2 5 S 3 7 S 3 8 S 4 9 S 4 10 S 5 12 S 6 13 S 6 14 S 7 16 S 8 17 S 9 18 S 11 15 S 11 19 S 12 20 S 13 21 S 14 22 S 15 23 S 21 30 S 22 26 S 24 25 S 24 27 S 25 28 S 29 31 S 29 33 S 30 32 S 31 36 S 33 38 S 34 37 S 34 39 S 35 37 S 35 41 S 36 42 S 37 40 END
  END
  STR        ! HuLiS Wgt = 2.38% (HLP)  S9
    LONE 5 1 END
    BOND D 1 6 D 2 4 D 3 7 D 8 14 D 9 12 D 11 15 D 13 29 D 21 24 D 22 25 D 30 31 D 33 34 D 35 36 S 1 2 S 1 3 S 2 5 S 3 8 S 4 9 S 4 10 S 5 11 S 5 12 S 6 13 S 6 14 S 7 15 S 7 16 S 8 17 S 9 18 S 11 19 S 12 20 S 13 21 S 14 22 S 15 23 S 21 30 S 22 26 S 24 25 S 24 27 S 25 28 S 29 31 S 29 33 S 30 32 S 31 36 S 33 38 S 34 37 S 34 39 S 35 37 S 35 41 S 36 42 S 37 40 END
  END
  STR        ! HuLiS Wgt = 2.07% (HLP)  S10
    LONE 2 1 END
    BOND D 1 6 D 3 7 D 4 9 D 5 12 D 8 14 D 11 15 D 13 29 D 21 24 D 22 25 D 30 31 D 33 34 D 35 36 S 1 2 S 1 3 S 2 4 S 2 5 S 3 8 S 4 10 S 5 11 S 6 13 S 6 14 S 7 15 S 7 16 S 8 17 S 9 12 S 9 18 S 11 19 S 12 20 S 13 21 S 14 22 S 15 23 S 21 30 S 22 26 S 24 25 S 24 27 S 25 28 S 29 31 S 29 33 S 30 32 S 31 36 S 33 38 S 34 37 S 34 39 S 35 37 S 35 41 S 36 42 S 37 40 END
  END
  STR        ! HuLiS Wgt = 2.73% (HLP)  S11
    LONE 8 1 END
    BOND D 1 3 D 2 4 D 5 11 D 6 13 D 7 15 D 9 12 D 14 22 D 21 30 D 24 25 D 29 31 D 33 34 D 35 36 S 1 2 S 1 6 S 2 5 S 3 7 S 3 8 S 4 9 S 4 10 S 5 12 S 6 14 S 7 16 S 8 14 S 8 17 S 9 18 S 11 15 S 11 19 S 12 20 S 13 21 S 13 29 S 15 23 S 21 24 S 22 25 S 22 26 S 24 27 S 25 28 S 29 33 S 30 31 S 30 32 S 31 36 S 33 38 S 34 37 S 34 39 S 35 37 S 35 41 S 36 42 S 37 40 END
  END
  STR        ! HuLiS Wgt = 2.56% (HLP)  S12
    LONE 4 1 END
    BOND D 1 2 D 3 8 D 5 11 D 6 13 D 7 15 D 9 12 D 14 22 D 21 30 D 24 25 D 29 31 D 33 34 D 35 36 S 1 3 S 1 6 S 2 4 S 2 5 S 3 7 S 4 9 S 4 10 S 5 12 S 6 14 S 7 16 S 8 14 S 8 17 S 9 18 S 11 15 S 11 19 S 12 20 S 13 21 S 13 29 S 15 23 S 21 24 S 22 25 S 22 26 S 24 27 S 25 28 S 29 33 S 30 31 S 30 32 S 31 36 S 33 38 S 34 37 S 34 39 S 35 37 S 35 41 S 36 42 S 37 40 END
  END
  STR        ! HuLiS Wgt = 0.56% (HLP)  S13
    LONE END
    BOND D 1 2 D 3 7 D 4 9 D 5 12 D 6 13 D 11 15 D 14 22 D 21 30 D 24 25 D 29 33 D 31 36 D 35 37 S 1 3 S 1 6 S 2 4 S 2 5 S 3 8 S 4 10 S 5 11 S 6 14 S 7 15 S 7 16 S 8 14 S 8 17 S 8 34 S 9 12 S 9 18 S 11 19 S 12 20 S 13 21 S 13 29 S 15 23 S 21 24 S 22 25 S 22 26 S 24 27 S 25 28 S 29 31 S 30 31 S 30 32 S 33 34 S 33 38 S 34 37 S 34 39 S 35 36 S 35 41 S 36 42 S 37 40 END
  END
  STR        ! HuLiS Wgt = 0.43% (HLP)  S14
    LONE END
    BOND D 1 6 D 2 4 D 3 7 D 5 12 D 8 14 D 11 15 D 13 29 D 21 24 D 22 25 D 30 31 D 34 37 D 35 36 S 1 2 S 1 3 S 2 5 S 3 8 S 4 9 S 4 10 S 5 11 S 6 13 S 6 14 S 7 15 S 7 16 S 8 17 S 9 12 S 9 18 S 9 33 S 11 19 S 12 20 S 13 21 S 14 22 S 15 23 S 21 30 S 22 26 S 24 25 S 24 27 S 25 28 S 29 31 S 29 33 S 30 32 S 31 36 S 33 34 S 33 38 S 34 39 S 35 37 S 35 41 S 36 42 S 37 40 END
  END
  STR        ! HuLiS Wgt = 0.23% (HLP)  S15
    LONE END
    BOND D 1 6 D 2 4 D 3 7 D 5 12 D 8 14 D 11 15 D 13 29 D 21 24 D 22 25 D 30 31 D 33 34 D 35 36 S 1 2 S 1 3 S 2 5 S 3 8 S 4 9 S 4 10 S 5 11 S 6 13 S 6 14 S 7 15 S 7 16 S 8 17 S 9 12 S 9 18 S 9 37 S 11 19 S 12 20 S 13 21 S 14 22 S 15 23 S 21 30 S 22 26 S 24 25 S 24 27 S 25 28 S 29 31 S 29 33 S 30 32 S 31 36 S 33 38 S 34 37 S 34 39 S 35 37 S 35 41 S 36 42 S 37 40 END
  END
  STR        ! HuLiS Wgt = 0.02% (HLP)  S16
    LONE END
    BOND D 1 2 D 3 8 D 4 9 D 5 11 D 6 14 D 7 15 D 13 29 D 21 24 D 22 25 D 30 31 D 34 37 D 35 36 S 1 3 S 1 6 S 2 4 S 2 5 S 3 7 S 4 10 S 5 12 S 6 13 S 7 16 S 8 14 S 8 17 S 9 12 S 9 18 S 11 15 S 11 19 S 12 20 S 12 33 S 13 21 S 14 22 S 15 23 S 21 30 S 22 26 S 24 25 S 24 27 S 25 28 S 29 31 S 29 33 S 30 32 S 31 36 S 33 34 S 33 38 S 34 39 S 35 37 S 35 41 S 36 42 S 37 40 END
  END
  STR        ! HuLiS Wgt = 0.00% (HLP)  S17
    LONE END
    BOND D 1 2 D 3 8 D 4 9 D 5 11 D 6 14 D 7 15 D 13 29 D 21 24 D 22 25 D 30 31 D 33 34 D 35 37 S 1 3 S 1 6 S 2 4 S 2 5 S 3 7 S 4 10 S 5 12 S 6 13 S 7 16 S 8 14 S 8 17 S 9 12 S 9 18 S 11 15 S 11 19 S 12 20 S 12 36 S 13 21 S 14 22 S 15 23 S 21 30 S 22 26 S 24 25 S 24 27 S 25 28 S 29 31 S 29 33 S 30 32 S 31 36 S 33 38 S 34 37 S 34 39 S 35 36 S 35 41 S 36 42 S 37 40 END
  END
  STR        ! HuLiS Wgt = 1.09% (HLP)  S18
    LONE END
    BOND D 1 6 D 2 4 D 3 7 D 5 12 D 11 15 D 13 21 D 14 22 D 24 25 D 29 33 D 30 31 D 34 37 D 35 36 S 1 2 S 1 3 S 2 5 S 3 8 S 4 9 S 4 10 S 5 11 S 6 13 S 6 14 S 7 15 S 7 16 S 8 9 S 8 14 S 8 17 S 9 12 S 9 18 S 11 19 S 12 20 S 13 29 S 15 23 S 21 24 S 21 30 S 22 25 S 22 26 S 24 27 S 25 28 S 29 31 S 30 32 S 31 36 S 33 34 S 33 38 S 34 39 S 35 37 S 35 41 S 36 42 S 37 40 END
  END
  STR        ! HuLiS Wgt = 1.61% (HLP)  S19
    LONE END
    BOND D 1 3 D 2 4 D 5 11 D 6 13 D 7 15 D 9 12 D 14 22 D 21 30 D 24 25 D 29 33 D 34 37 D 35 36 S 1 2 S 1 6 S 2 5 S 3 7 S 3 8 S 4 9 S 4 10 S 5 12 S 6 14 S 7 16 S 8 14 S 8 17 S 8 31 S 9 18 S 11 15 S 11 19 S 12 20 S 13 21 S 13 29 S 15 23 S 21 24 S 22 25 S 22 26 S 24 27 S 25 28 S 29 31 S 30 31 S 30 32 S 31 36 S 33 34 S 33 38 S 34 39 S 35 37 S 35 41 S 36 42 S 37 40 END
  END
  STR        ! HuLiS Wgt = 1.56% (HLP)  S20
    LONE END
    BOND D 1 6 D 2 4 D 3 7 D 5 11 D 8 14 D 9 12 D 13 21 D 22 25 D 29 33 D 30 31 D 34 37 D 35 36 S 1 2 S 1 3 S 2 5 S 3 8 S 4 9 S 4 10 S 5 12 S 6 13 S 6 14 S 7 15 S 7 16 S 8 17 S 9 18 S 11 15 S 11 19 S 12 20 S 13 29 S 14 22 S 15 23 S 15 24 S 21 24 S 21 30 S 22 26 S 24 25 S 24 27 S 25 28 S 29 31 S 30 32 S 31 36 S 33 34 S 33 38 S 34 39 S 35 37 S 35 41 S 36 42 S 37 40 END
  END
  STR        ! HuLiS Wgt = 0.89% (HLP)  S21
    LONE END
    BOND D 1 6 D 2 4 D 3 7 D 5 11 D 8 14 D 9 12 D 13 29 D 21 30 D 22 25 D 31 36 D 33 34 D 35 37 S 1 2 S 1 3 S 2 5 S 3 8 S 4 9 S 4 10 S 5 12 S 6 13 S 6 14 S 7 15 S 7 16 S 8 17 S 9 18 S 11 15 S 11 19 S 12 20 S 13 21 S 14 22 S 15 23 S 15 24 S 21 24 S 22 26 S 24 25 S 24 27 S 25 28 S 29 31 S 29 33 S 30 31 S 30 32 S 33 38 S 34 37 S 34 39 S 35 36 S 35 41 S 36 42 S 37 40 END
  END
  STR        ! HuLiS Wgt = 0.00% (HLP)  S22
    LONE END
    BOND D 1 2 D 3 8 D 4 9 D 5 12 D 6 14 D 7 15 D 13 29 D 21 24 D 22 25 D 30 31 D 33 34 D 35 36 S 1 3 S 1 6 S 2 4 S 2 5 S 3 7 S 4 10 S 5 11 S 6 13 S 7 16 S 8 14 S 8 17 S 9 12 S 9 18 S 11 15 S 11 19 S 11 37 S 12 20 S 13 21 S 14 22 S 15 23 S 21 30 S 22 26 S 24 25 S 24 27 S 25 28 S 29 31 S 29 33 S 30 32 S 31 36 S 33 38 S 34 37 S 34 39 S 35 37 S 35 41 S 36 42 S 37 40 END
  END
  STR        ! HuLiS Wgt = 0.00% (HLP)  S23
    LONE END
    BOND D 1 2 D 3 8 D 4 9 D 5 12 D 6 14 D 11 15 D 13 29 D 21 24 D 22 25 D 30 31 D 33 34 D 35 37 S 1 3 S 1 6 S 2 4 S 2 5 S 3 7 S 4 10 S 5 11 S 6 13 S 7 15 S 7 16 S 7 36 S 8 14 S 8 17 S 9 12 S 9 18 S 11 19 S 12 20 S 13 21 S 14 22 S 15 23 S 21 30 S 22 26 S 24 25 S 24 27 S 25 28 S 29 31 S 29 33 S 30 32 S 31 36 S 33 38 S 34 37 S 34 39 S 35 36 S 35 41 S 36 42 S 37 40 END
  END
  STR        ! HuLiS Wgt = 1.17% (HLP)  S24
    LONE END
    BOND D 1 3 D 2 4 D 5 11 D 6 13 D 7 15 D 8 14 D 9 12 D 21 30 D 24 25 D 29 33 D 31 36 D 34 37 S 1 2 S 1 6 S 2 5 S 3 7 S 3 8 S 4 9 S 4 10 S 5 12 S 6 14 S 7 16 S 8 17 S 9 18 S 11 15 S 11 19 S 12 20 S 13 21 S 13 29 S 14 22 S 15 23 S 21 24 S 22 25 S 22 26 S 22 35 S 24 27 S 25 28 S 29 31 S 30 31 S 30 32 S 33 34 S 33 38 S 34 39 S 35 36 S 35 37 S 35 41 S 36 42 S 37 40 END
  END
  STR        ! HuLiS Wgt = 2.11% (HLP)  S25
    LONE 12 1 END
    BOND D 1 6 D 2 5 D 3 7 D 4 9 D 8 14 D 11 15 D 13 29 D 21 24 D 22 25 D 30 31 D 33 34 D 35 36 S 1 2 S 1 3 S 2 4 S 3 8 S 4 10 S 5 11 S 5 12 S 6 13 S 6 14 S 7 15 S 7 16 S 8 17 S 9 12 S 9 18 S 11 19 S 12 20 S 13 21 S 14 22 S 15 23 S 21 30 S 22 26 S 24 25 S 24 27 S 25 28 S 29 31 S 29 33 S 30 32 S 31 36 S 33 38 S 34 37 S 34 39 S 35 37 S 35 41 S 36 42 S 37 40 END
  END
  STR        ! HuLiS Wgt = 1.23% (HLP)  S26
    LONE 12 1 END
    BOND D 1 2 D 3 8 D 4 9 D 5 11 D 6 14 D 7 15 D 13 29 D 21 24 D 22 25 D 30 31 D 33 34 D 35 37 S 1 3 S 1 6 S 2 4 S 2 5 S 3 7 S 4 10 S 5 12 S 6 13 S 7 16 S 8 14 S 8 17 S 9 12 S 9 18 S 11 15 S 11 19 S 12 20 S 13 21 S 14 22 S 15 23 S 21 30 S 22 26 S 24 25 S 24 27 S 25 28 S 29 31 S 29 33 S 30 32 S 31 36 S 33 38 S 34 37 S 34 39 S 35 36 S 35 41 S 36 42 S 37 40 END
  END
  STR        ! HuLiS Wgt = 2.02% (HLP)  S27
    LONE 12 1 END
    BOND D 1 2 D 3 8 D 4 9 D 5 11 D 6 14 D 7 15 D 13 29 D 21 24 D 22 25 D 30 31 D 34 37 D 35 36 S 1 3 S 1 6 S 2 4 S 2 5 S 3 7 S 4 10 S 5 12 S 6 13 S 7 16 S 8 14 S 8 17 S 9 12 S 9 18 S 11 15 S 11 19 S 12 20 S 13 21 S 14 22 S 15 23 S 21 30 S 22 26 S 24 25 S 24 27 S 25 28 S 29 31 S 29 33 S 30 32 S 31 36 S 33 34 S 33 38 S 34 39 S 35 37 S 35 41 S 36 42 S 37 40 END
  END
  STR        ! HuLiS Wgt = 2.32% (HLP)  S28
    LONE 5 1 END
    BOND D 2 4 D 3 7 D 6 13 D 8 14 D 9 12 D 11 15 D 21 24 D 22 25 D 29 33 D 30 31 D 34 37 D 35 36 S 1 2 S 1 3 S 1 6 S 2 5 S 3 8 S 4 9 S 4 10 S 5 11 S 5 12 S 6 14 S 7 15 S 7 16 S 8 17 S 9 18 S 11 19 S 12 20 S 13 21 S 13 29 S 14 22 S 15 23 S 21 30 S 22 26 S 24 25 S 24 27 S 25 28 S 29 31 S 30 32 S 31 36 S 33 34 S 33 38 S 34 39 S 35 37 S 35 41 S 36 42 S 37 40 END
  END
  STR        ! HuLiS Wgt = 3.13% (HLP)  S29
    LONE 5 1 END
    BOND D 1 3 D 2 4 D 6 13 D 8 14 D 9 12 D 11 15 D 21 24 D 22 25 D 29 33 D 30 31 D 34 37 D 35 36 S 1 2 S 1 6 S 2 5 S 3 7 S 3 8 S 4 9 S 4 10 S 5 11 S 5 12 S 6 14 S 7 15 S 7 16 S 8 17 S 9 18 S 11 19 S 12 20 S 13 21 S 13 29 S 14 22 S 15 23 S 21 30 S 22 26 S 24 25 S 24 27 S 25 28 S 29 31 S 30 32 S 31 36 S 33 34 S 33 38 S 34 39 S 35 37 S 35 41 S 36 42 S 37 40 END
  END
  STR        ! HuLiS Wgt = 1.19% (HLP)  S30
    LONE 12 1 END
    BOND D 1 2 D 3 8 D 4 9 D 5 11 D 6 14 D 7 15 D 13 29 D 21 24 D 22 25 D 30 31 D 33 34 D 35 36 S 1 3 S 1 6 S 2 4 S 2 5 S 3 7 S 4 10 S 5 12 S 6 13 S 7 16 S 8 14 S 8 17 S 9 12 S 9 18 S 11 15 S 11 19 S 12 20 S 13 21 S 14 22 S 15 23 S 21 30 S 22 26 S 24 25 S 24 27 S 25 28 S 29 31 S 29 33 S 30 32 S 31 36 S 33 38 S 34 37 S 34 39 S 35 37 S 35 41 S 36 42 S 37 40 END
  END
  STR        ! HuLiS Wgt = 17.52% (HLP)  S31
    LONE END
    BOND D 1 6 D 2 4 D 3 8 D 5 11 D 7 15 D 9 12 D 13 21 D 14 22 D 24 25 D 29 33 D 30 31 D 34 37 D 35 36 S 1 2 S 1 3 S 2 5 S 3 7 S 4 9 S 4 10 S 5 12 S 6 13 S 6 14 S 7 16 S 8 14 S 8 17 S 9 18 S 11 15 S 11 19 S 12 20 S 13 29 S 15 23 S 21 24 S 21 30 S 22 25 S 22 26 S 24 27 S 25 28 S 29 31 S 30 32 S 31 36 S 33 34 S 33 38 S 34 39 S 35 37 S 35 41 S 36 42 S 37 40 END
  END
  STR        ! HuLiS Wgt = 16.05% (HLP)  S32
    LONE END
    BOND D 1 3 D 2 4 D 5 11 D 6 13 D 7 15 D 8 14 D 9 12 D 21 24 D 22 25 D 29 33 D 30 31 D 34 37 D 35 36 S 1 2 S 1 6 S 2 5 S 3 7 S 3 8 S 4 9 S 4 10 S 5 12 S 6 14 S 7 16 S 8 17 S 9 18 S 11 15 S 11 19 S 12 20 S 13 21 S 13 29 S 14 22 S 15 23 S 21 30 S 22 26 S 24 25 S 24 27 S 25 28 S 29 31 S 30 32 S 31 36 S 33 34 S 33 38 S 34 39 S 35 37 S 35 41 S 36 42 S 37 40 END
  END
$END
