%mem=256MB
#P HF 6-31G(d) pop=nboread

! File generated by the HuLiS 3.3.7 code - Monday, January 13, 2025 at 12:05:32 PM Central European Standard Time

0 1
C      1.21668      2.53414     -0.19336
C      2.40310      1.88907     -0.34759
C     -0.00000      1.81030     -0.00000
C      2.47992      0.47323     -0.18738
C     -0.00000      0.39498     -0.00000
C      1.28752     -0.28007      0.05695
C     -1.21669      2.53414      0.19335
C     -2.40310      1.88907      0.34759
C     -2.47992      0.47323      0.18738
C     -1.28752     -0.28008     -0.05695
H      1.16786      3.61700     -0.23752
H      3.31634      2.44338     -0.53600
H     -1.16786      3.61700      0.23751
H     -3.31634      2.44337      0.53599
C     -3.73737     -0.17571      0.19144
C     -1.45692     -1.63549     -0.44328
C     -2.69874     -2.23629     -0.46798
C     -3.85123     -1.51363     -0.11049
H     -4.62158      0.41454      0.40877
H     -0.60442     -2.20506     -0.78075
H     -2.78557     -3.26970     -0.78463
H     -4.82189     -1.99620     -0.11387
C      3.85123     -1.51363      0.11049
C      3.73737     -0.17571     -0.19144
C      2.69874     -2.23629      0.46798
C      1.45692     -1.63549      0.44328
H      4.82189     -1.99620      0.11388
H      4.62158      0.41455     -0.40877
H      2.78557     -3.26969      0.78464
H      0.60443     -2.20506      0.78075

$nbo nrt $end
$NRTSTR ! Trust factor = 35.70% (HLP) 
  STR        ! HuLiS Wgt = 7.05% (HLP)  S1
    LONE END
    BOND D 1 3 D 2 4 D 5 6 D 7 8 D 9 15 D 10 16 D 17 18 D 23 24 D 25 26 S 1 2 S 1 11 S 2 12 S 3 5 S 3 7 S 4 6 S 4 24 S 5 10 S 6 26 S 7 13 S 8 9 S 8 14 S 9 10 S 15 18 S 15 19 S 16 17 S 16 20 S 17 21 S 18 22 S 23 25 S 23 27 S 24 28 S 25 29 S 26 30 END
  END
  STR        ! HuLiS Wgt = 10.58% (HLP)  S2
    LONE END
    BOND D 1 2 D 3 5 D 4 24 D 6 26 D 7 8 D 9 15 D 10 16 D 17 18 D 23 25 S 1 3 S 1 11 S 2 4 S 2 12 S 3 7 S 4 6 S 5 6 S 5 10 S 7 13 S 8 9 S 8 14 S 9 10 S 15 18 S 15 19 S 16 17 S 16 20 S 17 21 S 18 22 S 23 24 S 23 27 S 24 28 S 25 26 S 25 29 S 26 30 END
  END
  STR        ! HuLiS Wgt = 7.26% (HLP)  S3
    LONE END
    BOND D 1 2 D 3 7 D 4 24 D 5 10 D 6 26 D 8 9 D 15 18 D 16 17 D 23 25 S 1 3 S 1 11 S 2 4 S 2 12 S 3 5 S 4 6 S 5 6 S 7 8 S 7 13 S 8 14 S 9 10 S 9 15 S 10 16 S 15 19 S 16 20 S 17 18 S 17 21 S 18 22 S 23 24 S 23 27 S 24 28 S 25 26 S 25 29 S 26 30 END
  END
  STR        ! HuLiS Wgt = 16.85% (HLP)  S4
    LONE END
    BOND D 1 2 D 3 5 D 4 6 D 7 8 D 9 10 D 15 18 D 16 17 D 23 24 D 25 26 S 1 3 S 1 11 S 2 4 S 2 12 S 3 7 S 4 24 S 5 6 S 5 10 S 6 26 S 7 13 S 8 9 S 8 14 S 9 15 S 10 16 S 15 19 S 16 20 S 17 18 S 17 21 S 18 22 S 23 25 S 23 27 S 24 28 S 25 29 S 26 30 END
  END
  STR        ! HuLiS Wgt = 12.75% (HLP)  S5
    LONE END
    BOND D 1 2 D 3 5 D 4 24 D 6 26 D 7 8 D 9 10 D 15 18 D 16 17 D 23 25 S 1 3 S 1 11 S 2 4 S 2 12 S 3 7 S 4 6 S 5 6 S 5 10 S 7 13 S 8 9 S 8 14 S 9 15 S 10 16 S 15 19 S 16 20 S 17 18 S 17 21 S 18 22 S 23 24 S 23 27 S 24 28 S 25 26 S 25 29 S 26 30 END
  END
  STR        ! HuLiS Wgt = 9.06% (HLP)  S6
    LONE END
    BOND D 1 3 D 2 4 D 5 6 D 7 8 D 9 10 D 15 18 D 16 17 D 23 24 D 25 26 S 1 2 S 1 11 S 2 12 S 3 5 S 3 7 S 4 6 S 4 24 S 5 10 S 6 26 S 7 13 S 8 9 S 8 14 S 9 15 S 10 16 S 15 19 S 16 20 S 17 18 S 17 21 S 18 22 S 23 25 S 23 27 S 24 28 S 25 29 S 26 30 END
  END
  STR        ! HuLiS Wgt = 9.39% (HLP)  S7
    LONE END
    BOND D 1 2 D 3 7 D 4 6 D 5 10 D 8 9 D 15 18 D 16 17 D 23 24 D 25 26 S 1 3 S 1 11 S 2 4 S 2 12 S 3 5 S 4 24 S 5 6 S 6 26 S 7 8 S 7 13 S 8 14 S 9 10 S 9 15 S 10 16 S 15 19 S 16 20 S 17 18 S 17 21 S 18 22 S 23 25 S 23 27 S 24 28 S 25 29 S 26 30 END
  END
  STR        ! HuLiS Wgt = 13.18% (HLP)  S8
    LONE END
    BOND D 1 2 D 3 5 D 4 6 D 7 8 D 9 15 D 10 16 D 17 18 D 23 24 D 25 26 S 1 3 S 1 11 S 2 4 S 2 12 S 3 7 S 4 24 S 5 6 S 5 10 S 6 26 S 7 13 S 8 9 S 8 14 S 9 10 S 15 18 S 15 19 S 16 17 S 16 20 S 17 21 S 18 22 S 23 25 S 23 27 S 24 28 S 25 29 S 26 30 END
  END
  STR        ! HuLiS Wgt = 0.43% (HLP)  S9
    LONE END
    BOND D 1 2 D 3 7 D 4 24 D 5 6 D 8 9 D 10 16 D 15 18 D 23 25 S 1 3 S 1 11 S 2 4 S 2 12 S 3 5 S 4 6 S 5 10 S 6 26 S 7 8 S 7 13 S 8 14 S 9 10 S 9 15 S 15 19 S 16 17 S 16 20 S 17 18 S 17 21 S 17 26 S 18 22 S 23 24 S 23 27 S 24 28 S 25 26 S 25 29 S 26 30 END
  END
  STR        ! HuLiS Wgt = 0.31% (HLP)  S10
    LONE END
    BOND D 2 4 D 3 7 D 5 6 D 8 9 D 10 16 D 15 18 D 23 24 D 25 26 S 1 2 S 1 3 S 1 11 S 1 17 S 2 12 S 3 5 S 4 6 S 4 24 S 5 10 S 6 26 S 7 8 S 7 13 S 8 14 S 9 10 S 9 15 S 15 19 S 16 17 S 16 20 S 17 18 S 17 21 S 18 22 S 23 25 S 23 27 S 24 28 S 25 29 S 26 30 END
  END
  STR        ! HuLiS Wgt = 0.88% (HLP)  S11
    LONE END
    BOND D 1 3 D 2 4 D 5 6 D 8 9 D 10 16 D 15 18 D 23 24 D 25 26 S 1 2 S 1 11 S 2 12 S 3 5 S 3 7 S 4 6 S 4 24 S 5 10 S 6 26 S 7 8 S 7 13 S 7 17 S 8 14 S 9 10 S 9 15 S 15 19 S 16 17 S 16 20 S 17 18 S 17 21 S 18 22 S 23 25 S 23 27 S 24 28 S 25 29 S 26 30 END
  END
  STR        ! HuLiS Wgt = 1.48% (HLP)  S12
    LONE END
    BOND D 1 3 D 2 4 D 5 6 D 7 8 D 9 10 D 17 18 D 23 24 D 25 26 S 1 2 S 1 11 S 2 12 S 3 5 S 3 7 S 4 6 S 4 24 S 5 10 S 6 26 S 7 13 S 8 9 S 8 14 S 9 15 S 10 16 S 15 16 S 15 18 S 15 19 S 16 17 S 16 20 S 17 21 S 18 22 S 23 25 S 23 27 S 24 28 S 25 29 S 26 30 END
  END
  STR        ! HuLiS Wgt = 1.61% (HLP)  S13
    LONE END
    BOND D 1 2 D 3 5 D 4 24 D 6 26 D 8 9 D 15 18 D 16 17 D 23 25 S 1 3 S 1 11 S 2 4 S 2 12 S 3 7 S 4 6 S 5 6 S 5 10 S 7 8 S 7 10 S 7 13 S 8 14 S 9 10 S 9 15 S 10 16 S 15 19 S 16 20 S 17 18 S 17 21 S 18 22 S 23 24 S 23 27 S 24 28 S 25 26 S 25 29 S 26 30 END
  END
  STR        ! HuLiS Wgt = 0.83% (HLP)  S14
    LONE END
    BOND D 1 3 D 4 24 D 5 10 D 6 26 D 8 9 D 15 18 D 16 17 D 23 25 S 1 2 S 1 11 S 2 4 S 2 7 S 2 12 S 3 5 S 3 7 S 4 6 S 5 6 S 7 8 S 7 13 S 8 14 S 9 10 S 9 15 S 10 16 S 15 19 S 16 20 S 17 18 S 17 21 S 18 22 S 23 24 S 23 27 S 24 28 S 25 26 S 25 29 S 26 30 END
  END
  STR        ! HuLiS Wgt = 0.79% (HLP)  S15
    LONE END
    BOND D 1 3 D 2 4 D 5 10 D 8 9 D 15 18 D 16 17 D 23 24 D 25 26 S 1 2 S 1 11 S 2 12 S 3 5 S 3 7 S 4 6 S 4 24 S 5 6 S 6 7 S 6 26 S 7 8 S 7 13 S 8 14 S 9 10 S 9 15 S 10 16 S 15 19 S 16 20 S 17 18 S 17 21 S 18 22 S 23 25 S 23 27 S 24 28 S 25 29 S 26 30 END
  END
  STR        ! HuLiS Wgt = 0.32% (HLP)  S16
    LONE 7 1 END
    BOND D 1 3 D 4 24 D 5 10 D 6 26 D 8 9 D 15 18 D 16 17 D 23 25 S 1 2 S 1 11 S 2 4 S 2 12 S 3 5 S 3 7 S 4 6 S 5 6 S 7 8 S 7 13 S 8 14 S 9 10 S 9 15 S 10 16 S 15 19 S 16 20 S 17 18 S 17 21 S 18 22 S 23 24 S 23 27 S 24 28 S 25 26 S 25 29 S 26 30 END
  END
  STR        ! HuLiS Wgt = 0.72% (HLP)  S17
    LONE 17 1 END
    BOND D 1 2 D 3 5 D 4 24 D 6 26 D 8 9 D 10 16 D 15 18 D 23 25 S 1 3 S 1 11 S 2 4 S 2 12 S 3 7 S 4 6 S 5 6 S 5 10 S 7 8 S 7 13 S 8 14 S 9 10 S 9 15 S 15 19 S 16 17 S 16 20 S 17 18 S 17 21 S 18 22 S 23 24 S 23 27 S 24 28 S 25 26 S 25 29 S 26 30 END
  END
  STR        ! HuLiS Wgt = 0.36% (HLP)  S18
    LONE 6 1 END
    BOND D 1 3 D 2 4 D 5 10 D 7 8 D 9 15 D 17 18 D 23 24 D 25 26 S 1 2 S 1 11 S 2 12 S 3 5 S 3 7 S 4 6 S 4 24 S 5 6 S 6 26 S 7 13 S 8 9 S 8 14 S 9 10 S 10 16 S 15 18 S 15 19 S 16 17 S 16 20 S 17 21 S 18 22 S 23 25 S 23 27 S 24 28 S 25 29 S 26 30 END
  END
  STR        ! HuLiS Wgt = 0.79% (HLP)  S19
    LONE 3 1 END
    BOND D 1 2 D 5 6 D 7 8 D 9 15 D 10 16 D 17 18 D 23 24 D 25 26 S 1 3 S 1 11 S 2 4 S 2 12 S 3 5 S 3 7 S 4 6 S 4 24 S 5 10 S 6 26 S 7 13 S 8 9 S 8 14 S 9 10 S 15 18 S 15 19 S 16 17 S 16 20 S 17 21 S 18 22 S 23 25 S 23 27 S 24 28 S 25 29 S 26 30 END
  END
  STR        ! HuLiS Wgt = 0.84% (HLP)  S20
    LONE END
    BOND D 2 4 D 3 7 D 5 6 D 9 15 D 10 16 D 17 18 D 23 24 D 25 26 S 1 2 S 1 3 S 1 8 S 1 11 S 2 12 S 3 5 S 4 6 S 4 24 S 5 10 S 6 26 S 7 8 S 7 13 S 8 9 S 8 14 S 9 10 S 15 18 S 15 19 S 16 17 S 16 20 S 17 21 S 18 22 S 23 25 S 23 27 S 24 28 S 25 29 S 26 30 END
  END
  STR        ! HuLiS Wgt = 0.94% (HLP)  S21
    LONE END
    BOND D 1 2 D 3 7 D 5 6 D 8 9 D 15 18 D 16 17 D 23 24 D 25 26 S 1 3 S 1 11 S 2 4 S 2 12 S 3 5 S 4 6 S 4 10 S 4 24 S 5 10 S 6 26 S 7 8 S 7 13 S 8 14 S 9 10 S 9 15 S 10 16 S 15 19 S 16 20 S 17 18 S 17 21 S 18 22 S 23 25 S 23 27 S 24 28 S 25 29 S 26 30 END
  END
  STR        ! HuLiS Wgt = 0.23% (HLP)  S22
    LONE 9 1 END
    BOND D 1 3 D 2 4 D 5 10 D 7 8 D 15 18 D 16 17 D 23 24 D 25 26 S 1 2 S 1 11 S 2 12 S 3 5 S 3 7 S 4 6 S 4 24 S 5 6 S 6 26 S 7 13 S 8 9 S 8 14 S 9 10 S 9 15 S 10 16 S 15 19 S 16 20 S 17 18 S 17 21 S 18 22 S 23 25 S 23 27 S 24 28 S 25 29 S 26 30 END
  END
  STR        ! HuLiS Wgt = 0.45% (HLP)  S23
    LONE 9 1 END
    BOND D 1 3 D 4 24 D 5 10 D 6 26 D 7 8 D 15 18 D 16 17 D 23 25 S 1 2 S 1 11 S 2 4 S 2 12 S 3 5 S 3 7 S 4 6 S 5 6 S 7 13 S 8 9 S 8 14 S 9 10 S 9 15 S 10 16 S 15 19 S 16 20 S 17 18 S 17 21 S 18 22 S 23 24 S 23 27 S 24 28 S 25 26 S 25 29 S 26 30 END
  END
  STR        ! HuLiS Wgt = 0.55% (HLP)  S24
    LONE 5 1 END
    BOND D 1 3 D 2 4 D 6 26 D 7 8 D 9 10 D 15 18 D 16 17 D 23 25 S 1 2 S 1 11 S 2 12 S 3 5 S 3 7 S 4 6 S 4 24 S 5 6 S 5 10 S 7 13 S 8 9 S 8 14 S 9 15 S 10 16 S 15 19 S 16 20 S 17 18 S 17 21 S 18 22 S 23 24 S 23 27 S 24 28 S 25 26 S 25 29 S 26 30 END
  END
  STR        ! HuLiS Wgt = 0.77% (HLP)  S25
    LONE 8 1 END
    BOND D 1 2 D 3 7 D 5 6 D 9 10 D 15 18 D 16 17 D 23 24 D 25 26 S 1 3 S 1 11 S 2 4 S 2 12 S 3 5 S 4 6 S 4 24 S 5 10 S 6 26 S 7 8 S 7 13 S 8 9 S 8 14 S 9 15 S 10 16 S 15 19 S 16 20 S 17 18 S 17 21 S 18 22 S 23 25 S 23 27 S 24 28 S 25 29 S 26 30 END
  END
  STR        ! HuLiS Wgt = 0.47% (HLP)  S26
    LONE 16 1 END
    BOND D 1 3 D 4 6 D 5 10 D 7 8 D 9 15 D 17 18 D 23 24 D 25 26 S 1 2 S 1 11 S 2 4 S 2 12 S 3 5 S 3 7 S 4 24 S 5 6 S 6 26 S 7 13 S 8 9 S 8 14 S 9 10 S 10 16 S 15 18 S 15 19 S 16 17 S 16 20 S 17 21 S 18 22 S 23 25 S 23 27 S 24 28 S 25 29 S 26 30 END
  END
  STR        ! HuLiS Wgt = 0.16% (HLP)  S27
    LONE 18 1 END
    BOND D 1 3 D 2 4 D 5 10 D 6 26 D 7 8 D 9 15 D 16 17 D 23 25 S 1 2 S 1 11 S 2 12 S 3 5 S 3 7 S 4 6 S 4 24 S 5 6 S 7 13 S 8 9 S 8 14 S 9 10 S 10 16 S 15 18 S 15 19 S 16 20 S 17 18 S 17 21 S 18 22 S 23 24 S 23 27 S 24 28 S 25 26 S 25 29 S 26 30 END
  END
  STR        ! HuLiS Wgt = 0.60% (HLP)  S28
    LONE 9 1 END
    BOND D 1 3 D 4 6 D 5 10 D 7 8 D 15 18 D 16 17 D 23 24 D 25 26 S 1 2 S 1 11 S 2 4 S 2 12 S 3 5 S 3 7 S 4 24 S 5 6 S 6 26 S 7 13 S 8 9 S 8 14 S 9 10 S 9 15 S 10 16 S 15 19 S 16 20 S 17 18 S 17 21 S 18 22 S 23 25 S 23 27 S 24 28 S 25 29 S 26 30 END
  END
  STR        ! HuLiS Wgt = 0.35% (HLP)  S29
    LONE 7 1 END
    BOND D 1 3 D 2 4 D 5 10 D 8 9 D 15 18 D 16 17 D 23 24 D 25 26 S 1 2 S 1 11 S 2 12 S 3 5 S 3 7 S 4 6 S 4 24 S 5 6 S 6 26 S 7 8 S 7 13 S 8 14 S 9 10 S 9 15 S 10 16 S 15 19 S 16 20 S 17 18 S 17 21 S 18 22 S 23 25 S 23 27 S 24 28 S 25 29 S 26 30 END
  END
$END
